100
150
98
98
96
95
95
94
94
93
93
92
92
92
90
89
89
88
87
87
87
87
85
85
83
83
82
81
80
80
79
76
75
75
74
73
71
70
68
68
66
66
63
63
63
59
59
58
58
58
58
56
55
54
53
51
49
49
47
46
46
45
44
44
43
42
40
37
37
37
36
33
33
33
30
30
29
26
26
26
26
25
24
23
22
21
21
20
18
17
17
16
15
10
7
6
5
4
3
2
1
1
